10
20
901717
0
0
242 29 42 110 106 20 106 70 45 13 14 6 24 9 69 51 1 97 87 64
1
0
36 93 147 66 51 71 6 33 8 52 144 39 10 57 40 62 38 28 38 60
2
0
19 31 39 4 18 6 16 35 32 34 59 6 40 10 46 115 2 9 13 76
3
0
9 46 20 29 32 19 192 3 60 19 68 54 185 12 17 2 46 76 26 15
4
0
34 37 3 62 154 16 17 66 113 55 6 108 92 48 134 81 55 4 48 13
5
0
44 3 12 21 24 113 3 71 10 0 53 4 82 72 203 20 39 52 14 1
6
0
3 27 168 90 270 6 35 22 19 139 60 46 31 9 7 48 79 11 29 144
7
0
18 73 40 15 48 85 73 1 3 8 9 120 35 22 143 102 13 158 59 14
8
0
46 34 3 37 45 29 27 53 48 11 8 45 23 20 17 16 25 38 68 13
9
0
207 80 16 222 8 19 1 64 10 145 7 131 16 111 6 104 10 83 0 35
